NAME : portgen-18-61
COMMENT : portgen N=18, seed=61
TYPE : TSP
DIMENSION : 18
EDGE_WEIGHT_TYPE : EUC_2D
NODE_COORD_SECTION
1 760627 742622
2 728397 805962
3 308859 525355
4 614678 258250
5 836185 893136
6 639682 858073
7 625629 458086
8 986410 659263
9 664716 366559
10 331598 221735
11 468515 716281
12 925894 412630
13 897208 717694
14 938541 622776
15 691551 68995
16 868666 859712
17 767922 233532
18 647154 516294
